p cnf 35 100
a 9 18 0
e 1 2 3 4 5 6 7 8 10 11 12 13 14 15 16 17 19 20 21 22 23 24 25 26 27 28 29 30 31 32 33 34 35 0
-2 -3 -4 0
2 3 -4 0
-2 3 4 0
2 -3 4 0
-1 4 -5 0
1 -4 -5 0
-1 -4 5 0
1 4 5 0
-7 6 0
-7 -1 0
-6 1 7 0
7 2 -8 0
-7 -2 -8 0
7 -2 8 0
-7 2 8 0
-8 1 -9 0
8 -1 -9 0
-8 -1 9 0
8 1 9 0
11 -10 0
11 -10 0
10 -11 0
-12 -9 0
-12 11 0
9 -11 12 0
6 -7 -13 0
-6 7 -13 0
6 7 13 0
-6 -7 13 0
-14 13 0
-14 13 0
-13 14 0
15 12 0
15 14 0
-12 -14 -15 0
16 5 0
16 -15 0
-5 15 -16 0
17 -13 0
17 2 0
13 -2 -17 0
-19 -10 0
-19 6 0
10 -6 19 0
18 19 -20 0
-18 -19 -20 0
18 -19 20 0
-18 19 20 0
-17 20 -21 0
17 -20 -21 0
-17 -20 21 0
17 20 21 0
-22 16 0
-22 21 0
-16 -21 22 0
-23 11 0
-23 14 0
-11 -14 23 0
24 6 0
24 3 0
-6 -3 -24 0
23 -24 -25 0
-23 24 -25 0
23 24 25 0
-23 -24 25 0
-28 -26 0
-28 -27 0
26 27 28 0
29 28 0
29 -11 0
-28 11 -29 0
-30 25 0
-30 -29 0
-25 29 30 0
22 -30 -31 0
-22 30 -31 0
22 30 31 0
-22 -30 31 0
1 -32 0
-1 -32 0
-33 31 0
-33 32 0
-31 -32 33 0
-14 2 -34 0
14 -2 -34 0
-14 -2 34 0
14 2 34 0
-35 -33 0
-35 34 0
33 -34 35 0
33 -19 -35 -6 24 0
22 -7 9 -5 0
-15 -5 -20 -29 9 17 30 0
-4 -33 21 34 -13 3 35 8 0
-30 2 -8 18 13 -19 6 0
12 -2 -7 -9 0
-3 -20 7 31 -13 0
4 -29 20 -2 -30 11 31 0
-15 17 -31 0
35 0
